
Gurobi 9.5.2 (mac64[arm]) logging started Wed Apr 12 22:07:53 2023

Set parameter LogFile to value "./ccga_results/2023-04-12 22-07-51-882/MSP_TimeStampConvert_gurobi_log.txt"

Gurobi 9.5.2 (mac64[arm]) logging started Wed Apr 12 22:07:53 2023

Set parameter LogFile to value "./ccga_results/2023-04-12 22-07-51-882/MSP_TimeStampConvert_gurobi_log.txt"
Set parameter TimeLimit to value 180
Gurobi Optimizer version 9.5.2 build v9.5.2rc0 (mac64[arm])
Thread count: 8 physical cores, 8 logical processors, using up to 8 threads
Optimize a model with 600 rows, 457 columns and 1482 nonzeros
Model fingerprint: 0xe63f0f4b
Variable types: 25 continuous, 432 integer (432 binary)
Coefficient statistics:
  Matrix range     [1e+00, 1e+00]
  Objective range  [1e+00, 1e+00]
  Bounds range     [1e+03, 1e+03]
  RHS range        [1e+00, 1e+00]
Found heuristic solution: objective 24000.000000

Explored 0 nodes (0 simplex iterations) in 0.00 seconds (0.00 work units)
Thread count was 1 (of 8 available processors)

Solution count 1: 24000 

Optimal solution found (tolerance 5.00e-02)
Best objective 2.400000000000e+04, best bound 2.400000000000e+04, gap 0.0000%

User-callback calls 21, time in user-callback 0.00 sec
Gurobi Optimizer version 9.5.2 build v9.5.2rc0 (mac64[arm])
Thread count: 8 physical cores, 8 logical processors, using up to 8 threads
Optimize a model with 2149 rows, 961 columns and 6467 nonzeros
Model fingerprint: 0xab8f5083
Variable types: 481 continuous, 480 integer (480 binary)
Coefficient statistics:
  Matrix range     [2e-03, 8e+02]
  Objective range  [1e+00, 1e+00]
  Bounds range     [1e+03, 1e+03]
  RHS range        [1e+00, 1e+08]

MIP start from previous solve did not produce a new incumbent solution

Presolve removed 431 rows and 133 columns
Presolve time: 0.01s
Presolved: 1718 rows, 828 columns, 5870 nonzeros
Variable types: 408 continuous, 420 integer (420 binary)
Found heuristic solution: objective 20313.886307

Root relaxation: objective 2.220345e+04, 992 iterations, 0.01 seconds (0.01 work units)

    Nodes    |    Current Node    |     Objective Bounds      |     Work
 Expl Unexpl |  Obj  Depth IntInf | Incumbent    BestBd   Gap | It/Node Time

     0     0 22203.4477    0   68 20313.8863 22203.4477  9.30%     -    0s
H    0     0                    21371.495416 22203.4477  3.89%     -    0s

Cutting planes:
  Gomory: 21
  Implied bound: 16
  MIR: 41
  Flow cover: 26
  Relax-and-lift: 10

Explored 1 nodes (1790 simplex iterations) in 0.08 seconds (0.10 work units)
Thread count was 8 (of 8 available processors)

Solution count 2: 21371.5 20313.9 

Optimal solution found (tolerance 5.00e-02)
Best objective 2.137149541643e+04, best bound 2.220344768423e+04, gap 3.8928%

User-callback calls 547, time in user-callback 0.00 sec
Gurobi Optimizer version 9.5.2 build v9.5.2rc0 (mac64[arm])
Thread count: 8 physical cores, 8 logical processors, using up to 8 threads
Optimize a model with 3698 rows, 1465 columns and 11452 nonzeros
Model fingerprint: 0x192489d7
Variable types: 937 continuous, 528 integer (528 binary)
Coefficient statistics:
  Matrix range     [2e-03, 8e+02]
  Objective range  [1e+00, 1e+00]
  Bounds range     [1e+03, 1e+03]
  RHS range        [1e+00, 1e+08]

MIP start from previous solve did not produce a new incumbent solution

Presolve removed 814 rows and 253 columns
Presolve time: 0.03s
Presolved: 2884 rows, 1212 columns, 10357 nonzeros
Variable types: 792 continuous, 420 integer (420 binary)
Found heuristic solution: objective 16490.210191

Root relaxation: objective 2.117306e+04, 1622 iterations, 0.02 seconds (0.03 work units)

    Nodes    |    Current Node    |     Objective Bounds      |     Work
 Expl Unexpl |  Obj  Depth IntInf | Incumbent    BestBd   Gap | It/Node Time

     0     0 21173.0624    0  108 16490.2102 21173.0624  28.4%     -    0s
H    0     0                    19926.449284 21173.0624  6.26%     -    0s
H    0     0                    20420.095762 21173.0624  3.69%     -    0s

Cutting planes:
  Gomory: 32
  Implied bound: 22
  MIR: 67
  Flow cover: 32
  Relax-and-lift: 10

Explored 1 nodes (3539 simplex iterations) in 0.18 seconds (0.25 work units)
Thread count was 8 (of 8 available processors)

Solution count 3: 20420.1 19926.4 16490.2 

Optimal solution found (tolerance 5.00e-02)
Best objective 2.042009576179e+04, best bound 2.117306240080e+04, gap 3.6874%

User-callback calls 577, time in user-callback 0.00 sec
Gurobi Optimizer version 9.5.2 build v9.5.2rc0 (mac64[arm])
Thread count: 8 physical cores, 8 logical processors, using up to 8 threads
Optimize a model with 5247 rows, 1969 columns and 16437 nonzeros
Model fingerprint: 0xee9438a4
Variable types: 1393 continuous, 576 integer (576 binary)
Coefficient statistics:
  Matrix range     [2e-03, 8e+02]
  Objective range  [1e+00, 1e+00]
  Bounds range     [1e+03, 1e+03]
  RHS range        [1e+00, 1e+08]

MIP start from previous solve did not produce a new incumbent solution

Presolve removed 1196 rows and 372 columns
Presolve time: 0.04s
Presolved: 4051 rows, 1597 columns, 14774 nonzeros
Variable types: 1177 continuous, 420 integer (420 binary)
Found heuristic solution: objective 14340.985650
Found heuristic solution: objective 14541.159451

Root relaxation: objective 1.949851e+04, 2848 iterations, 0.06 seconds (0.09 work units)

    Nodes    |    Current Node    |     Objective Bounds      |     Work
 Expl Unexpl |  Obj  Depth IntInf | Incumbent    BestBd   Gap | It/Node Time

     0     0 19498.5084    0  151 14541.1595 19498.5084  34.1%     -    0s
H    0     0                    18174.412269 19498.5084  7.29%     -    0s
H    0     0                    18209.412269 19294.7163  5.96%     -    0s
H    0     0                    18523.032883 19294.7163  4.17%     -    0s
     0     0 19294.7163    0  146 18523.0329 19294.7163  4.17%     -    0s

Cutting planes:
  Gomory: 37
  Cover: 2
  Implied bound: 45
  MIR: 97
  Flow cover: 103
  RLT: 8
  Relax-and-lift: 13

Explored 1 nodes (5205 simplex iterations) in 0.33 seconds (0.48 work units)
Thread count was 8 (of 8 available processors)

Solution count 5: 18523 18209.4 18174.4 ... 14341

Optimal solution found (tolerance 5.00e-02)
Best objective 1.852303288317e+04, best bound 1.929471626375e+04, gap 4.1661%

User-callback calls 649, time in user-callback 0.00 sec
Gurobi Optimizer version 9.5.2 build v9.5.2rc0 (mac64[arm])
Thread count: 8 physical cores, 8 logical processors, using up to 8 threads
Optimize a model with 6796 rows, 2473 columns and 21422 nonzeros
Model fingerprint: 0x323de04a
Variable types: 1849 continuous, 624 integer (624 binary)
Coefficient statistics:
  Matrix range     [2e-03, 8e+02]
  Objective range  [1e+00, 1e+00]
  Bounds range     [1e+03, 1e+03]
  RHS range        [1e+00, 1e+08]

MIP start from previous solve did not produce a new incumbent solution

Presolve removed 1577 rows and 490 columns
Presolve time: 0.05s
Presolved: 5219 rows, 1983 columns, 18715 nonzeros
Variable types: 1560 continuous, 423 integer (420 binary)
Found heuristic solution: objective 14086.105865

Root relaxation: objective 1.827295e+04, 3860 iterations, 0.08 seconds (0.08 work units)

    Nodes    |    Current Node    |     Objective Bounds      |     Work
 Expl Unexpl |  Obj  Depth IntInf | Incumbent    BestBd   Gap | It/Node Time

     0     0 18272.9470    0  118 14086.1059 18272.9470  29.7%     -    0s
H    0     0                    15948.274488 18272.9470  14.6%     -    0s
H    0     0                    17626.317781 18145.5299  2.95%     -    0s
     0     0 18145.5299    0  193 17626.3178 18145.5299  2.95%     -    0s

Cutting planes:
  Gomory: 30
  Cover: 1
  Implied bound: 28
  MIR: 113
  Flow cover: 94
  RLT: 8
  Relax-and-lift: 30

Explored 1 nodes (8967 simplex iterations) in 0.53 seconds (0.74 work units)
Thread count was 8 (of 8 available processors)

Solution count 3: 17626.3 15948.3 14086.1 

Optimal solution found (tolerance 5.00e-02)
Best objective 1.762631778057e+04, best bound 1.814552994582e+04, gap 2.9457%

User-callback calls 713, time in user-callback 0.00 sec
Gurobi Optimizer version 9.5.2 build v9.5.2rc0 (mac64[arm])
Thread count: 8 physical cores, 8 logical processors, using up to 8 threads
Optimize a model with 8345 rows, 2977 columns and 26407 nonzeros
Model fingerprint: 0x0488a124
Variable types: 2305 continuous, 672 integer (672 binary)
Coefficient statistics:
  Matrix range     [2e-03, 8e+02]
  Objective range  [1e+00, 1e+00]
  Bounds range     [1e+03, 1e+03]
  RHS range        [1e+00, 1e+08]

MIP start from previous solve did not produce a new incumbent solution

Presolve removed 1960 rows and 610 columns
Presolve time: 0.06s
Presolved: 6385 rows, 2367 columns, 22858 nonzeros
Variable types: 1944 continuous, 423 integer (420 binary)
Found heuristic solution: objective 12500.079245

Root relaxation: objective 1.664466e+04, 4572 iterations, 0.09 seconds (0.09 work units)

    Nodes    |    Current Node    |     Objective Bounds      |     Work
 Expl Unexpl |  Obj  Depth IntInf | Incumbent    BestBd   Gap | It/Node Time

     0     0 16644.6551    0  150 12500.0792 16644.6551  33.2%     -    0s
H    0     0                    15140.308269 16644.6551  9.94%     -    0s
     0     0 16497.7249    0  174 15140.3083 16497.7249  8.97%     -    0s
H    0     0                    15509.182762 16493.2698  6.35%     -    0s
     0     0 16493.2698    0  174 15509.1828 16493.2698  6.35%     -    0s
     0     0 16492.9809    0  177 15509.1828 16492.9809  6.34%     -    0s
     0     0 16396.7451    0  178 15509.1828 16396.7451  5.72%     -    0s
     0     0 16352.4078    0  174 15509.1828 16352.4078  5.44%     -    0s
     0     0 16339.0812    0  181 15509.1828 16339.0812  5.35%     -    0s
     0     0 16338.6138    0  176 15509.1828 16338.6138  5.35%     -    0s
     0     0 16338.3324    0  182 15509.1828 16338.3324  5.35%     -    0s
     0     0 16338.2452    0  170 15509.1828 16338.2452  5.35%     -    0s
     0     0 16338.2302    0  167 15509.1828 16338.2302  5.35%     -    0s
     0     0 16319.1294    0  180 15509.1828 16319.1294  5.22%     -    1s
     0     0 16307.4444    0  198 15509.1828 16307.4444  5.15%     -    1s
     0     0 16305.5361    0  187 15509.1828 16305.5361  5.13%     -    1s
     0     0 16304.9804    0  190 15509.1828 16304.9804  5.13%     -    1s
     0     0 16304.9804    0  191 15509.1828 16304.9804  5.13%     -    1s
     0     0 16298.6105    0  177 15509.1828 16298.6105  5.09%     -    1s
     0     0 16297.9583    0  168 15509.1828 16297.9583  5.09%     -    1s
     0     0 16297.7560    0  160 15509.1828 16297.7560  5.08%     -    1s
     0     0 16297.6540    0  166 15509.1828 16297.6540  5.08%     -    1s
     0     0 16297.6540    0  166 15509.1828 16297.6540  5.08%     -    1s
     0     0 16293.3550    0  205 15509.1828 16293.3550  5.06%     -    1s
H    0     0                    15632.025434 16291.9746  4.22%     -    1s
     0     0 16291.9746    0  210 15632.0254 16291.9746  4.22%     -    1s

Cutting planes:
  Gomory: 10
  Cover: 1
  Implied bound: 49
  MIR: 183
  Flow cover: 191
  RLT: 19
  Relax-and-lift: 141

Explored 1 nodes (19705 simplex iterations) in 1.50 seconds (2.01 work units)
Thread count was 8 (of 8 available processors)

Solution count 4: 15632 15509.2 15140.3 12500.1 

Optimal solution found (tolerance 5.00e-02)
Best objective 1.563202543379e+04, best bound 1.629197456814e+04, gap 4.2218%

User-callback calls 1102, time in user-callback 0.00 sec
Gurobi Optimizer version 9.5.2 build v9.5.2rc0 (mac64[arm])
Thread count: 8 physical cores, 8 logical processors, using up to 8 threads
Optimize a model with 9894 rows, 3481 columns and 31392 nonzeros
Model fingerprint: 0xcf06232e
Variable types: 2761 continuous, 720 integer (720 binary)
Coefficient statistics:
  Matrix range     [2e-03, 8e+02]
  Objective range  [1e+00, 1e+00]
  Bounds range     [1e+03, 1e+03]
  RHS range        [1e+00, 1e+08]

MIP start from previous solve did not produce a new incumbent solution

Presolve removed 2342 rows and 729 columns
Presolve time: 0.08s
Presolved: 7552 rows, 2752 columns, 27017 nonzeros
Variable types: 2329 continuous, 423 integer (420 binary)
Found heuristic solution: objective 11777.904101
Found heuristic solution: objective 11812.299504

Root relaxation: objective 1.554968e+04, 5428 iterations, 0.13 seconds (0.14 work units)

    Nodes    |    Current Node    |     Objective Bounds      |     Work
 Expl Unexpl |  Obj  Depth IntInf | Incumbent    BestBd   Gap | It/Node Time

     0     0 15549.6794    0  159 11812.2995 15549.6794  31.6%     -    0s
H    0     0                    14158.793188 15549.6794  9.82%     -    0s
     0     0 15432.3665    0  179 14158.7932 15432.3665  8.99%     -    0s
     0     0 15432.2053    0  167 14158.7932 15432.2053  8.99%     -    0s
     0     0 15431.7719    0  163 14158.7932 15431.7719  8.99%     -    0s
     0     0 15431.7719    0  163 14158.7932 15431.7719  8.99%     -    0s
H    0     0                    14163.265819 15431.7719  8.96%     -    0s
     0     0 15319.4449    0  170 14163.2658 15319.4449  8.16%     -    1s
H    0     0                    14521.835305 15295.2413  5.33%     -    1s
     0     0 15295.2413    0  159 14521.8353 15295.2413  5.33%     -    1s
     0     0 15288.5736    0  202 14521.8353 15288.5736  5.28%     -    1s
     0     0 15287.3482    0  178 14521.8353 15287.3482  5.27%     -    1s
     0     0 15286.9245    0  181 14521.8353 15286.9245  5.27%     -    1s
     0     0 15286.8210    0  182 14521.8353 15286.8210  5.27%     -    1s
     0     0 15286.8090    0  182 14521.8353 15286.8090  5.27%     -    1s
     0     0 15206.2393    0  184 14521.8353 15206.2393  4.71%     -    1s

Cutting planes:
  Gomory: 19
  Cover: 1
  Implied bound: 47
  MIR: 258
  Flow cover: 252
  RLT: 19
  Relax-and-lift: 170

Explored 1 nodes (20407 simplex iterations) in 1.45 seconds (1.95 work units)
Thread count was 8 (of 8 available processors)

Solution count 5: 14521.8 14163.3 14158.8 ... 11777.9

Optimal solution found (tolerance 5.00e-02)
Best objective 1.452183530520e+04, best bound 1.520623934669e+04, gap 4.7129%

User-callback calls 935, time in user-callback 0.00 sec
Gurobi Optimizer version 9.5.2 build v9.5.2rc0 (mac64[arm])
Thread count: 8 physical cores, 8 logical processors, using up to 8 threads
Optimize a model with 11443 rows, 3985 columns and 36377 nonzeros
Model fingerprint: 0x4a1a3567
Variable types: 3217 continuous, 768 integer (768 binary)
Coefficient statistics:
  Matrix range     [2e-03, 8e+02]
  Objective range  [1e+00, 1e+00]
  Bounds range     [1e+03, 1e+03]
  RHS range        [1e+00, 1e+08]

MIP start from previous solve did not produce a new incumbent solution

Presolve removed 2726 rows and 850 columns
Presolve time: 0.09s
Presolved: 8717 rows, 3135 columns, 31133 nonzeros
Variable types: 2712 continuous, 423 integer (420 binary)
Found heuristic solution: objective 11593.517224

Root relaxation: objective 1.493414e+04, 6955 iterations, 0.25 seconds (0.27 work units)

    Nodes    |    Current Node    |     Objective Bounds      |     Work
 Expl Unexpl |  Obj  Depth IntInf | Incumbent    BestBd   Gap | It/Node Time

     0     0 14934.1444    0  153 11593.5172 14934.1444  28.8%     -    0s
H    0     0                    13593.582911 14934.1444  9.86%     -    0s
     0     0 14856.1067    0  158 13593.5829 14856.1067  9.29%     -    0s
H    0     0                    13998.667375 14856.1067  6.13%     -    0s
     0     0 14848.3244    0  168 13998.6674 14848.3244  6.07%     -    0s
     0     0 14833.3778    0  149 13998.6674 14833.3778  5.96%     -    0s
     0     0 14833.3778    0  155 13998.6674 14833.3778  5.96%     -    0s
     0     0 14753.8039    0  152 13998.6674 14753.8039  5.39%     -    1s
     0     0 14706.1771    0  166 13998.6674 14706.1771  5.05%     -    1s
     0     0 14685.3484    0  167 13998.6674 14685.3484  4.91%     -    1s

Cutting planes:
  Gomory: 9
  Cover: 2
  Implied bound: 26
  MIR: 136
  Flow cover: 154
  RLT: 14
  Relax-and-lift: 136

Explored 1 nodes (18056 simplex iterations) in 1.33 seconds (1.82 work units)
Thread count was 8 (of 8 available processors)

Solution count 3: 13998.7 13593.6 11593.5 

Optimal solution found (tolerance 5.00e-02)
Best objective 1.399866737489e+04, best bound 1.468534837108e+04, gap 4.9053%

User-callback calls 965, time in user-callback 0.00 sec
Gurobi Optimizer version 9.5.2 build v9.5.2rc0 (mac64[arm])
Thread count: 8 physical cores, 8 logical processors, using up to 8 threads
Optimize a model with 12992 rows, 4489 columns and 41362 nonzeros
Model fingerprint: 0xba803b0c
Variable types: 3673 continuous, 816 integer (816 binary)
Coefficient statistics:
  Matrix range     [2e-03, 8e+02]
  Objective range  [1e+00, 1e+00]
  Bounds range     [1e+03, 1e+03]
  RHS range        [1e+00, 1e+08]

MIP start from previous solve did not produce a new incumbent solution

Presolve removed 3109 rows and 970 columns
Presolve time: 0.11s
Presolved: 9883 rows, 3519 columns, 35234 nonzeros
Variable types: 3096 continuous, 423 integer (420 binary)
Found heuristic solution: objective 11398.958877
Found heuristic solution: objective 11430.131609

Root relaxation: objective 1.396063e+04, 7602 iterations, 0.30 seconds (0.31 work units)

    Nodes    |    Current Node    |     Objective Bounds      |     Work
 Expl Unexpl |  Obj  Depth IntInf | Incumbent    BestBd   Gap | It/Node Time

     0     0 13960.6271    0  141 11430.1316 13960.6271  22.1%     -    0s
H    0     0                    12622.971453 13960.6271  10.6%     -    1s
     0     0 13890.4178    0  183 12622.9715 13890.4178  10.0%     -    1s
     0     0 13890.4178    0  172 12622.9715 13890.4178  10.0%     -    1s
H    0     0                    12677.369813 13890.4178  9.57%     -    1s
     0     0 13793.1552    0  191 12677.3698 13793.1552  8.80%     -    1s
     0     0 13758.4569    0  188 12677.3698 13758.4569  8.53%     -    1s
     0     0 13742.8339    0  180 12677.3698 13742.8339  8.40%     -    1s
     0     0 13740.3413    0  167 12677.3698 13740.3413  8.38%     -    1s
     0     0 13739.6955    0  183 12677.3698 13739.6955  8.38%     -    1s
     0     0 13737.8122    0  169 12677.3698 13737.8122  8.36%     -    1s
     0     0 13737.8017    0  166 12677.3698 13737.8017  8.36%     -    1s
     0     0 13628.4720    0  231 12677.3698 13628.4720  7.50%     -    2s
H    0     0                    12685.347542 13628.4720  7.43%     -    2s
     0     0 13593.5876    0  179 12685.3475 13593.5876  7.16%     -    2s
     0     0 13583.5504    0  173 12685.3475 13583.5504  7.08%     -    2s
     0     0 13582.1185    0  177 12685.3475 13582.1185  7.07%     -    2s
     0     0 13582.0903    0  177 12685.3475 13582.0903  7.07%     -    2s
H    0     0                    12735.911065 13569.4565  6.54%     -    2s
     0     0 13569.4565    0  220 12735.9111 13569.4565  6.54%     -    2s
     0     0 13568.1679    0  225 12735.9111 13568.1679  6.53%     -    2s
     0     0 13567.6887    0  216 12735.9111 13567.6887  6.53%     -    2s
     0     0 13567.6058    0  219 12735.9111 13567.6058  6.53%     -    2s
H    0     0                    12754.946246 13567.6058  6.37%     -    3s
     0     0 13564.4394    0  212 12754.9462 13564.4394  6.35%     -    3s
     0     0 13562.2232    0  208 12754.9462 13562.2232  6.33%     -    3s
     0     0 13561.5647    0  224 12754.9462 13561.5647  6.32%     -    3s
     0     0 13561.4556    0  215 12754.9462 13561.4556  6.32%     -    3s
     0     0 13557.7234    0  236 12754.9462 13557.7234  6.29%     -    3s
     0     0 13556.5077    0  227 12754.9462 13556.5077  6.28%     -    3s
     0     0 13556.2561    0  230 12754.9462 13556.2561  6.28%     -    3s
     0     0 13556.2532    0  232 12754.9462 13556.2532  6.28%     -    3s
     0     0 13555.6367    0  211 12754.9462 13555.6367  6.28%     -    3s
H    0     0                    13071.988546 13555.6367  3.70%     -    3s

Cutting planes:
  Gomory: 6
  Implied bound: 54
  MIR: 302
  Flow cover: 299
  RLT: 14
  Relax-and-lift: 264

Explored 1 nodes (39893 simplex iterations) in 3.70 seconds (5.51 work units)
Thread count was 8 (of 8 available processors)

Solution count 9: 13072 12754.9 12735.9 ... -13072

Optimal solution found (tolerance 5.00e-02)
Best objective 1.307198854628e+04, best bound 1.355563670432e+04, gap 3.6999%

User-callback calls 1597, time in user-callback 0.00 sec
Gurobi Optimizer version 9.5.2 build v9.5.2rc0 (mac64[arm])
Thread count: 8 physical cores, 8 logical processors, using up to 8 threads
Optimize a model with 14541 rows, 4993 columns and 46347 nonzeros
Model fingerprint: 0x12a9a4cb
Variable types: 4129 continuous, 864 integer (864 binary)
Coefficient statistics:
  Matrix range     [2e-03, 8e+02]
  Objective range  [1e+00, 1e+00]
  Bounds range     [1e+03, 1e+03]
  RHS range        [1e+00, 1e+08]

MIP start from previous solve produced solution with objective 10444.4 (0.03s)
Loaded MIP start from previous solve with objective 10444.4

Presolve removed 3492 rows and 1090 columns
Presolve time: 0.13s
Presolved: 11049 rows, 3903 columns, 39338 nonzeros
Variable types: 3480 continuous, 423 integer (420 binary)

Root relaxation: objective 1.311344e+04, 8500 iterations, 0.31 seconds (0.36 work units)

    Nodes    |    Current Node    |     Objective Bounds      |     Work
 Expl Unexpl |  Obj  Depth IntInf | Incumbent    BestBd   Gap | It/Node Time

     0     0 13113.4413    0  134 10444.4467 13113.4413  25.6%     -    0s
H    0     0                    11914.458231 13113.4413  10.1%     -    1s
     0     0 13088.8690    0  178 11914.4582 13088.8690  9.86%     -    1s
     0     0 13084.4826    0  175 11914.4582 13084.4826  9.82%     -    1s
     0     0 13084.4826    0  174 11914.4582 13084.4826  9.82%     -    1s
     0     0 12968.5802    0  223 11914.4582 12968.5802  8.85%     -    1s
     0     0 12873.2333    0  183 11914.4582 12873.2333  8.05%     -    2s
     0     0 12845.1622    0  200 11914.4582 12845.1622  7.81%     -    2s
     0     0 12838.5706    0  202 11914.4582 12838.5706  7.76%     -    2s
     0     0 12836.9834    0  219 11914.4582 12836.9834  7.74%     -    2s
     0     0 12835.7977    0  239 11914.4582 12835.7977  7.73%     -    2s
     0     0 12835.3912    0  228 11914.4582 12835.3912  7.73%     -    2s
     0     0 12835.3261    0  228 11914.4582 12835.3261  7.73%     -    2s
     0     0 12835.2935    0  231 11914.4582 12835.2935  7.73%     -    2s
H    0     0                    12080.947226 12791.4864  5.88%     -    2s
     0     0 12791.4864    0  249 12080.9472 12791.4864  5.88%     -    2s
     0     0 12777.6037    0  235 12080.9472 12777.6037  5.77%     -    2s
     0     0 12775.3767    0  228 12080.9472 12775.3767  5.75%     -    2s
     0     0 12775.2451    0  215 12080.9472 12775.2451  5.75%     -    3s
     0     0 12775.1839    0  232 12080.9472 12775.1839  5.75%     -    3s
     0     0 12768.7935    0  236 12080.9472 12768.7935  5.69%     -    3s
     0     0 12767.3456    0  241 12080.9472 12767.3456  5.68%     -    3s
     0     0 12766.6774    0  233 12080.9472 12766.6774  5.68%     -    3s
     0     0 12766.6378    0  235 12080.9472 12766.6378  5.68%     -    3s
     0     0 12766.0207    0  240 12080.9472 12766.0207  5.67%     -    3s
     0     0 12765.9573    0  232 12080.9472 12765.9573  5.67%     -    3s
     0     0 12765.1352    0  228 12080.9472 12765.1352  5.66%     -    3s
     0     0 12764.3506    0  243 12080.9472 12764.3506  5.66%     -    3s
     0     0 12764.1230    0  256 12080.9472 12764.1230  5.65%     -    4s
     0     0 12763.9969    0  242 12080.9472 12763.9969  5.65%     -    4s
     0     0 12763.9260    0  256 12080.9472 12763.9260  5.65%     -    4s
     0     0 12763.0604    0  243 12080.9472 12763.0604  5.65%     -    4s
     0     0 12761.8701    0  237 12080.9472 12761.8701  5.64%     -    4s
     0     0 12761.5750    0  240 12080.9472 12761.5750  5.63%     -    4s
     0     0 12761.5663    0  248 12080.9472 12761.5663  5.63%     -    4s
     0     0 12761.1311    0  244 12080.9472 12761.1311  5.63%     -    4s
     0     0 12760.7219    0  262 12080.9472 12760.7219  5.63%     -    4s
     0     0 12760.5574    0  259 12080.9472 12760.5574  5.63%     -    4s
     0     0 12760.4677    0  261 12080.9472 12760.4677  5.62%     -    4s
     0     0 12760.3615    0  276 12080.9472 12760.3615  5.62%     -    4s
     0     0 12760.3601    0  278 12080.9472 12760.3601  5.62%     -    4s
     0     0 12759.8682    0  238 12080.9472 12759.8682  5.62%     -    5s
     0     0 12759.8682    0  229 12080.9472 12759.8682  5.62%     -    5s
     0     2 12759.8682    0  226 12080.9472 12759.8682  5.62%     -    5s
H  158   157                    12190.702218 12723.3930  4.37%   662    7s

Cutting planes:
  Gomory: 6
  Implied bound: 116
  MIR: 698
  Flow cover: 589
  RLT: 43
  Relax-and-lift: 376

Explored 161 nodes (151386 simplex iterations) in 7.68 seconds (13.69 work units)
Thread count was 8 (of 8 available processors)

Solution count 5: 12190.7 12080.9 11914.5 ... -12190.7

Optimal solution found (tolerance 5.00e-02)
Best objective 1.219070221790e+04, best bound 1.272339302805e+04, gap 4.3696%

User-callback calls 2547, time in user-callback 0.00 sec
Gurobi Optimizer version 9.5.2 build v9.5.2rc0 (mac64[arm])
Thread count: 8 physical cores, 8 logical processors, using up to 8 threads
Optimize a model with 16090 rows, 5497 columns and 51332 nonzeros
Model fingerprint: 0x217dcae5
Variable types: 4585 continuous, 912 integer (912 binary)
Coefficient statistics:
  Matrix range     [2e-03, 8e+02]
  Objective range  [1e+00, 1e+00]
  Bounds range     [1e+03, 1e+03]
  RHS range        [1e+00, 1e+08]

MIP start from previous solve produced solution with objective 10520.9 (0.08s)
Loaded MIP start from previous solve with objective 10520.9

Presolve removed 3875 rows and 1210 columns
Presolve time: 0.15s
Presolved: 12215 rows, 4287 columns, 43362 nonzeros
Variable types: 3864 continuous, 423 integer (420 binary)

Root relaxation: objective 1.185248e+04, 8665 iterations, 0.29 seconds (0.31 work units)

    Nodes    |    Current Node    |     Objective Bounds      |     Work
 Expl Unexpl |  Obj  Depth IntInf | Incumbent    BestBd   Gap | It/Node Time

     0     0 11852.4837    0  116 10520.8506 11852.4837  12.7%     -    0s
     0     0 11795.9169    0  177 10520.8506 11795.9169  12.1%     -    1s
H    0     0                    10551.291180 11795.9169  11.8%     -    1s
     0     0 11792.7735    0  177 10551.2912 11792.7735  11.8%     -    1s
     0     0 11792.1374    0  170 10551.2912 11792.1374  11.8%     -    1s
     0     0 11792.1374    0  170 10551.2912 11792.1374  11.8%     -    1s
     0     0 11692.2416    0  189 10551.2912 11692.2416  10.8%     -    2s
H    0     0                    10675.465300 11692.2416  9.52%     -    2s
     0     0 11616.6228    0  191 10675.4653 11616.6228  8.82%     -    2s
     0     0 11602.9813    0  193 10675.4653 11602.9813  8.69%     -    2s
     0     0 11599.3291    0  178 10675.4653 11599.3291  8.65%     -    2s
     0     0 11598.6622    0  179 10675.4653 11598.6622  8.65%     -    2s
     0     0 11598.2378    0  187 10675.4653 11598.2378  8.64%     -    2s
     0     0 11598.2378    0  187 10675.4653 11598.2378  8.64%     -    2s
     0     0 11506.4877    0  188 10675.4653 11506.4877  7.78%     -    2s
     0     0 11485.8396    0  188 10675.4653 11485.8396  7.59%     -    3s
     0     0 11477.8767    0  223 10675.4653 11477.8767  7.52%     -    3s
     0     0 11473.9365    0  229 10675.4653 11473.9365  7.48%     -    3s
     0     0 11473.4502    0  220 10675.4653 11473.4502  7.47%     -    3s
     0     0 11473.3533    0  225 10675.4653 11473.3533  7.47%     -    3s
     0     0 11472.9323    0  235 10675.4653 11472.9323  7.47%     -    3s
     0     0 11472.8888    0  229 10675.4653 11472.8888  7.47%     -    3s
     0     0 11454.7661    0  235 10675.4653 11454.7661  7.30%     -    3s
     0     0 11451.5953    0  239 10675.4653 11451.5953  7.27%     -    3s
     0     0 11450.9351    0  239 10675.4653 11450.9351  7.26%     -    3s
     0     0 11450.6846    0  245 10675.4653 11450.6846  7.26%     -    3s
     0     0 11450.6785    0  245 10675.4653 11450.6785  7.26%     -    3s
     0     0 11447.0657    0  248 10675.4653 11447.0657  7.23%     -    4s
     0     0 11444.8132    0  246 10675.4653 11444.8132  7.21%     -    4s
     0     0 11444.1671    0  241 10675.4653 11444.1671  7.20%     -    4s
     0     0 11444.1239    0  238 10675.4653 11444.1239  7.20%     -    4s
     0     0 11439.2715    0  202 10675.4653 11439.2715  7.15%     -    4s
     0     0 11438.7813    0  237 10675.4653 11438.7813  7.15%     -    4s
     0     0 11438.7056    0  231 10675.4653 11438.7056  7.15%     -    4s
     0     0 11437.9665    0  223 10675.4653 11437.9665  7.14%     -    4s
     0     0 11437.7108    0  234 10675.4653 11437.7108  7.14%     -    5s
     0     0 11437.6468    0  240 10675.4653 11437.6468  7.14%     -    5s
     0     0 11437.5476    0  235 10675.4653 11437.5476  7.14%     -    5s
     0     0 11437.5476    0  215 10675.4653 11437.5476  7.14%     -    5s
     0     2 11437.5476    0  215 10675.4653 11437.5476  7.14%     -    5s
H   32    40                    10782.823172 11430.7245  6.01%  1418    6s
H  353   356                    10795.676463 11430.7245  5.88%   467    9s
   474   453 11248.2220   10  162 10795.6765 11427.3248  5.85%   437   10s
H  478   449                    10863.591397 11427.3248  5.19%   435   10s
H  529   441                    10915.328943 11427.3248  4.69%   438   10s

Cutting planes:
  Gomory: 5
  Cover: 4
  Implied bound: 107
  MIR: 592
  Flow cover: 531
  RLT: 49
  Relax-and-lift: 388

Explored 544 nodes (293196 simplex iterations) in 10.73 seconds (21.12 work units)
Thread count was 8 (of 8 available processors)

Solution count 7: 10915.3 10863.6 10795.7 ... 10520.9

Optimal solution found (tolerance 5.00e-02)
Best objective 1.091532894269e+04, best bound 1.142732481009e+04, gap 4.6906%

User-callback calls 3622, time in user-callback 0.00 sec
Gurobi Optimizer version 9.5.2 build v9.5.2rc0 (mac64[arm])
Thread count: 8 physical cores, 8 logical processors, using up to 8 threads
Optimize a model with 17639 rows, 6001 columns and 56317 nonzeros
Model fingerprint: 0x8851d012
Variable types: 5041 continuous, 960 integer (960 binary)
Coefficient statistics:
  Matrix range     [2e-03, 8e+02]
  Objective range  [1e+00, 1e+00]
  Bounds range     [1e+03, 1e+03]
  RHS range        [1e+00, 1e+08]

MIP start from previous solve produced solution with objective 9802.83 (0.04s)
Loaded MIP start from previous solve with objective 9802.83

Presolve removed 4258 rows and 1330 columns
Presolve time: 0.16s
Presolved: 13381 rows, 4671 columns, 47545 nonzeros
Variable types: 4248 continuous, 423 integer (420 binary)

Root relaxation: objective 1.135255e+04, 10923 iterations, 0.47 seconds (0.52 work units)

    Nodes    |    Current Node    |     Objective Bounds      |     Work
 Expl Unexpl |  Obj  Depth IntInf | Incumbent    BestBd   Gap | It/Node Time

     0     0 11352.5505    0  131 9802.82781 11352.5505  15.8%     -    0s
H    0     0                    10040.977332 11352.5505  13.1%     -    1s
     0     0 11319.4939    0  162 10040.9773 11319.4939  12.7%     -    1s
     0     0 11309.7405    0  151 10040.9773 11309.7405  12.6%     -    1s
     0     0 11303.3373    0  149 10040.9773 11303.3373  12.6%     -    1s
     0     0 11217.3874    0  160 10040.9773 11217.3874  11.7%     -    2s
     0     0 11152.7135    0  173 10040.9773 11152.7135  11.1%     -    2s
H    0     0                    10169.974408 11134.9229  9.49%     -    2s
     0     0 11134.9229    0  165 10169.9744 11134.9229  9.49%     -    2s
     0     0 11131.2850    0  180 10169.9744 11131.2850  9.45%     -    2s
     0     0 11130.4637    0  189 10169.9744 11130.4637  9.44%     -    2s
     0     0 11129.9260    0  192 10169.9744 11129.9260  9.44%     -    2s
     0     0 11129.7998    0  210 10169.9744 11129.7998  9.44%     -    2s
     0     0 11129.7267    0  210 10169.9744 11129.7267  9.44%     -    2s
     0     0 11129.6822    0  204 10169.9744 11129.6822  9.44%     -    2s
     0     0 11129.6822    0  204 10169.9744 11129.6822  9.44%     -    2s
     0     0 11052.9596    0  193 10169.9744 11052.9596  8.68%     -    2s
     0     0 11018.4604    0  191 10169.9744 11018.4604  8.34%     -    3s
     0     0 11014.8548    0  197 10169.9744 11014.8548  8.31%     -    3s
     0     0 11010.1505    0  206 10169.9744 11010.1505  8.26%     -    3s
     0     0 11009.5944    0  197 10169.9744 11009.5944  8.26%     -    3s
     0     0 11009.2555    0  206 10169.9744 11009.2555  8.25%     -    3s
     0     0 11009.1271    0  206 10169.9744 11009.1271  8.25%     -    3s
     0     0 11009.1271    0  206 10169.9744 11009.1271  8.25%     -    3s
     0     0 11001.0053    0  220 10169.9744 11001.0053  8.17%     -    3s
     0     0 10997.6317    0  227 10169.9744 10997.6317  8.14%     -    3s
     0     0 10996.6417    0  235 10169.9744 10996.6417  8.13%     -    4s
     0     0 10996.4205    0  241 10169.9744 10996.4205  8.13%     -    4s
     0     0 10996.4121    0  226 10169.9744 10996.4121  8.13%     -    4s
     0     0 10995.5095    0  228 10169.9744 10995.5095  8.12%     -    4s
     0     0 10995.4201    0  246 10169.9744 10995.4201  8.12%     -    4s
     0     0 10993.6587    0  245 10169.9744 10993.6587  8.10%     -    4s
     0     0 10991.9306    0  215 10169.9744 10991.9306  8.08%     -    4s
     0     0 10991.1354    0  233 10169.9744 10991.1354  8.07%     -    4s
     0     0 10991.0606    0  236 10169.9744 10991.0606  8.07%     -    4s
     0     0 10990.0659    0  243 10169.9744 10990.0659  8.06%     -    4s
H    0     0                    10260.475774 10990.0659  7.11%     -    5s
     0     0 10989.9136    0  243 10260.4758 10989.9136  7.11%     -    5s
     0     0 10989.9026    0  245 10260.4758 10989.9026  7.11%     -    5s
     0     0 10989.0775    0  230 10260.4758 10989.0775  7.10%     -    5s
     0     0 10988.8145    0  239 10260.4758 10988.8145  7.10%     -    5s
     0     0 10988.8126    0  227 10260.4758 10988.8126  7.10%     -    5s
     0     0 10987.2429    0  230 10260.4758 10987.2429  7.08%     -    5s
     0     0 10987.2034    0  229 10260.4758 10987.2034  7.08%     -    5s
     0     0 10987.0928    0  224 10260.4758 10987.0928  7.08%     -    5s
     0     0 10986.9693    0  231 10260.4758 10986.9693  7.08%     -    6s
     0     0 10986.9237    0  249 10260.4758 10986.9237  7.08%     -    6s
     0     0 10986.9237    0  240 10260.4758 10986.9237  7.08%     -    6s
     0     2 10986.9237    0  240 10260.4758 10986.9237  7.08%     -    6s
H   33    40                    10383.621092 10981.3363  5.76%  1588    8s
H   36    40                    10404.835355 10981.3363  5.54%  1515    8s
   146   155 10727.5604   15  166 10404.8354 10981.3363  5.54%   893   10s
H  550   471                    10407.985349 10981.3363  5.51%   585   13s
H  567   444                    10461.222476 10979.0337  4.95%   588   14s

Cutting planes:
  Gomory: 6
  Implied bound: 188
  MIR: 795
  Flow cover: 680
  RLT: 83
  Relax-and-lift: 476

Explored 575 nodes (397534 simplex iterations) in 14.39 seconds (26.25 work units)
Thread count was 8 (of 8 available processors)

Solution count 8: 10461.2 10408 10404.8 ... 9802.83

Optimal solution found (tolerance 5.00e-02)
Best objective 1.046122247639e+04, best bound 1.097897911494e+04, gap 4.9493%

User-callback calls 4695, time in user-callback 0.00 sec
